
Gurobi 9.1.2 (linux64, gurobi_cl) logging started Fri Jul 30 13:53:56 2021

Using license file /opt/gurobi/gurobi.lic
Set parameter TimeLimit to value 600
Set parameter Cuts to value 1
Set parameter LogFile to value 912-Cuts1-glass4-0.log

Gurobi Optimizer version 9.1.2 build v9.1.2rc0 (linux64)
Copyright (c) 2021, Gurobi Optimization, LLC

Read MPS format model from file /nfs/models/mip/glass4.mps.bz2
Reading time = 0.00 seconds
glass4: 396 rows, 322 columns, 1815 nonzeros
Thread count: 4 physical cores, 8 logical processors, using up to 8 threads
Optimize a model with 396 rows, 322 columns and 1815 nonzeros
Model fingerprint: 0x0a9d9037
Variable types: 20 continuous, 302 integer (0 binary)
Coefficient statistics:
  Matrix range     [1e+00, 8e+06]
  Objective range  [1e+00, 1e+06]
  Bounds range     [1e+00, 8e+02]
  RHS range        [1e+00, 8e+06]
Presolve removed 6 rows and 6 columns
Presolve time: 0.00s
Presolved: 390 rows, 316 columns, 1803 nonzeros
Variable types: 19 continuous, 297 integer (297 binary)
Found heuristic solution: objective 3.133356e+09

Root relaxation: objective 8.000024e+08, 72 iterations, 0.00 seconds

    Nodes    |    Current Node    |     Objective Bounds      |     Work
 Expl Unexpl |  Obj  Depth IntInf | Incumbent    BestBd   Gap | It/Node Time

     0     0 8.0000e+08    0   72 3.1334e+09 8.0000e+08  74.5%     -    0s
H    0     0                    2.200019e+09 8.0000e+08  63.6%     -    0s
H    0     0                    2.000016e+09 8.0000e+08  60.0%     -    0s
     0     0 8.0000e+08    0   72 2.0000e+09 8.0000e+08  60.0%     -    0s
     0     0 8.0000e+08    0   81 2.0000e+09 8.0000e+08  60.0%     -    0s
H    0     0                    2.000016e+09 8.0000e+08  60.0%     -    0s
     0     0 8.0000e+08    0   79 2.0000e+09 8.0000e+08  60.0%     -    0s
     0     2 8.0000e+08    0   78 2.0000e+09 8.0000e+08  60.0%     -    0s
H  723   660                    1.950016e+09 8.0000e+08  59.0%   5.3    0s
H  745   651                    1.883349e+09 8.0000e+08  57.5%   5.4    0s
H 1074   855                    1.866683e+09 8.0000e+08  57.1%   6.7    0s
H 1102   880                    1.866683e+09 8.0000e+08  57.1%   6.6    0s
H 1108   839                    1.833349e+09 8.0000e+08  56.4%   6.7    0s
H 1122   796                    1.766682e+09 8.0000e+08  54.7%   6.8    0s
H 1282   848                    1.700015e+09 8.0000e+08  52.9%   7.4    0s
* 4394  2533              64    1.700015e+09 8.0000e+08  52.9%  12.3    1s
H 5256  3223                    1.700015e+09 8.0001e+08  52.9%  12.2    1s
H 5966  3552                    1.680016e+09 8.0001e+08  52.4%  12.6    1s
H 7722  4471                    1.600016e+09 8.0001e+08  50.0%  12.5    2s
* 8010  4647              42    1.600015e+09 8.0001e+08  50.0%  12.6    2s
* 8011  4646              42    1.600015e+09 8.0001e+08  50.0%  12.6    2s
* 8014  4646              42    1.600015e+09 8.0001e+08  50.0%  12.6    2s
* 8018  4645              42    1.600015e+09 8.0001e+08  50.0%  12.6    2s
* 8020  4643              42    1.600015e+09 8.0001e+08  50.0%  12.6    2s
* 8021  4642              42    1.600015e+09 8.0001e+08  50.0%  12.6    2s
H 9489  5435                    1.600015e+09 8.0001e+08  50.0%  12.5    2s
H13686  8163                    1.600014e+09 8.0001e+08  50.0%  13.4    4s
 17370 10144 1.5000e+09   35   27 1.6000e+09 8.0001e+08  50.0%  13.0    5s
 44674 26200 infeasible   38      1.6000e+09 8.2858e+08  48.2%  12.7   10s
*46198 27177              48    1.600014e+09 8.2858e+08  48.2%  12.7   10s
*47668 24906              44    1.575014e+09 8.2858e+08  47.4%  12.7   10s
 84390 43674 1.2054e+09   42   39 1.5750e+09 8.5001e+08  46.0%  12.5   15s
*108698 54942              69    1.566680e+09 9.0001e+08  42.6%  12.8   18s
*108699 50341              69    1.500013e+09 9.0001e+08  40.0%  12.8   18s
 125685 58628 1.0000e+09   45   70 1.5000e+09 9.0001e+08  40.0%  12.6   20s
*134996 61703              62    1.500012e+09 9.0001e+08  40.0%  12.6   21s
 165690 76760 infeasible   31      1.5000e+09 9.0001e+08  40.0%  12.3   25s
 208063 92184 infeasible   45      1.5000e+09 9.1026e+08  39.3%  11.9   30s
 245107 104546 infeasible   41      1.5000e+09 1.0000e+09  33.3%  12.0   35s
 284750 118946 infeasible   56      1.5000e+09 1.0000e+09  33.3%  12.0   40s
 320012 131920     cutoff   41      1.5000e+09 1.0000e+09  33.3%  12.2   45s
 359001 144581 1.2000e+09   37   40 1.5000e+09 1.0000e+09  33.3%  12.3   50s
 394304 157111 1.3333e+09   43   27 1.5000e+09 1.0000e+09  33.3%  12.3   55s
*404469 121709              67    1.466680e+09 1.0000e+09  31.8%  12.3   56s
H404551 110773                    1.400013e+09 1.0000e+09  28.6%  12.3   56s
H405174 110323                    1.400013e+09 1.0000e+09  28.6%  12.3   56s
 419810 107168 infeasible   40      1.4000e+09 1.0000e+09  28.6%  12.5   60s
*440717 70903              59    1.300014e+09 1.1000e+09  15.4%  12.9   64s
H441085 46478                    1.266680e+09 1.1000e+09  13.2%  12.9   64s
H441163 38996                    1.200013e+09 1.1000e+09  8.33%  12.9   64s
 441826 38214 infeasible   39      1.2000e+09 1.1000e+09  8.33%  12.9   65s

Cutting planes:
  Gomory: 85
  Cover: 4
  Implied bound: 30
  MIR: 17
  Flow cover: 175
  GUB cover: 1
  Inf proof: 1
  RLT: 99
  Relax-and-lift: 89

Explored 463683 nodes (5789657 simplex iterations) in 66.32 seconds
Thread count was 8 (of 8 available processors)

Solution count 10: 1.20001e+09 1.26668e+09 1.30001e+09 ... 1.57501e+09

Optimal solution found (tolerance 1.00e-04)
Best objective 1.200012600000e+09, best bound 1.200003400000e+09, gap 0.0008%
